c Lingeling SAT Solver
c 
c Version azf 92032848c138b2f33629ad24394d60a3787a1046
c 
c Copyright (C) 2010-2014 Armin Biere JKU Linz Austria.
c All rights reserved.
c 
c released Don Mai 22 22:08:00 CEST 2014
c compiled Mon Oct  6 05:55:43 PDT 2014
c 
c gcc (Ubuntu 4.8.2-19ubuntu1) 4.8.2
c -Wall -O3 -DNDBLSCR -DNLGLOG -DNDEBUG -DNCHKSOL -DNLGLPICOSAT -DNLGLDRUPLIG
c -DNLGLYALSAT
c Linux ubuntu 3.13.0-32-generic x86_64
c 
c reading input file benchmark-sat/translations/gc-DSJR500.1-10.cnf
c no embedded options
c found 'p cnf 5000 58550' header
c read 5000 variables, 58550 clauses, 121100 literals in 0.00 seconds
c 
c  seconds         irredundant          redundant clauses agility   height
c          variables clauses conflicts large ternary binary    glue         MB
c 
c S    0.0    5000    58550         0       0      0     0   0  0.0   0.0    2
c S    1.0    4499    35554     10186    4403      0 17992  15 13.5  34.1    3
c S    2.1    4499    35554     40239   10006      0 17992  14 14.8  24.6    6
c S    5.1    4499    35554    121780   17818      0 17992  15 16.3  23.5    8
c S   10.1    4499    35554    226976   18983      4 17993  14 15.6  22.1   13
c S   20.1    4498    35536    430640   31723      0 17984  13 17.8  25.3   15
c S   30.1    4498    35536    629204   40652      0 17984  14 18.7  26.4   17
c S   40.1    4498    35536    792314   30947      0 17984  14 18.7  26.1   19
c S   50.1    4498    35536    967256   48346      0 17984  14 19.1  27.1   21
c S   60.1    4498    35536   1138036   48764      0 17984  14 19.0  27.2   32
c S  120.3    4498    35536   1920453   39098      0 17984  15 19.2  27.3   43
c 
c  seconds         irredundant          redundant clauses agility   height
c          variables clauses conflicts large ternary binary    glue         MB
c 
s UNSATISFIABLE
c
c    2.240   1% simplifying
c  172.931  99% search
c ==================================
c  175.171 100% all
c 
c 2819944 decisions, 16098.3 decisions/sec
c 2556114 conflicts, 14592.1 conflicts/sec
c 56934951 propagations, 0.3 megaprops/sec
c 175.2 seconds, 52.8 MB
